SCIP version 0.82 [precision: 8 byte] [memory: block] [mode: optimized] [LP solver: SOPLEX 1.3.0]
Copyright (c) 2002-2006 Konrad-Zuse-Zentrum fuer Informationstechnik Berlin (ZIB)

reading parameter file <scip.set>

read problem </ufs/psxjm3/instances/random_9.ctt.c.zpl>
============

****************************************************
* Zuse Institute Mathematical Programming Language *
* Release 2.04  Copyright (C)2005 by Thorsten Koch *
****************************************************

original problem has 46800 variables (46800 bin, 0 int, 0 impl, 0 cont) and 5302 constraints

solve problem
=============

LP Solver <SOPLEX 1.3.0>: dual feasibility tolerance cannot be set -- tolerance of SCIP and LP solver may differ
LP Solver <SOPLEX 1.3.0>: barrier convergence tolerance cannot be set -- tolerance of SCIP and LP solver may differ
LP Solver <SOPLEX 1.3.0>: fastmip setting not available -- SCIP parameter has no effect
LP Solver <SOPLEX 1.3.0>: scaling not available -- SCIP parameter has no effect
LP Solver <SOPLEX 1.3.0>: presolving not available -- SCIP parameter has no effect
transformed problem has 46800 variables (46800 bin, 0 int, 0 impl, 0 cont) and 5302 constraints
   5302 constraints of type <linear>

presolving:
(round 1) 6012 del vars, 68 del conss, 6012 chg bounds, 0 chg sides, 0 chg coeffs, 0 upgd conss, 0 impls, 4074 clqs
(round 2) 6012 del vars, 492 del conss, 6012 chg bounds, 0 chg sides, 0 chg coeffs, 0 upgd conss, 0 impls, 4074 clqs
(round 3) 6012 del vars, 3143 del conss, 6012 chg bounds, 2674 chg sides, 0 chg coeffs, 0 upgd conss, 0 impls, 4074 clqs
(round 4) 6012 del vars, 3143 del conss, 6012 chg bounds, 2674 chg sides, 0 chg coeffs, 1998 upgd conss, 0 impls, 4074 clqs
   (13.6s) probing: 100/40788 (0.2%) - 0 fixings, 0 aggregations, 0 implications, 0 bound changes
presolving (5 rounds):
 6012 deleted vars, 3143 deleted constraints, 6012 tightened bounds, 0 added holes, 2674 changed sides, 0 changed coefficients
 0 implications, 4074 cliques
presolved problem has 40788 variables (40788 bin, 0 int, 0 impl, 0 cont) and 2159 constraints
   1998 constraints of type <setppc>
    161 constraints of type <linear>
objective value is always integral
Presolving Time: 13.32

 time | node  | left  |LP iter| mem |mdpt |frac |vars |cons |ccons|cols |rows |cuts |confs|strbr|  dualbound   | primalbound  |  gap   
 19.4s|     1 |     0 |  1934 | 119M|   0 | 117 |  40k|2159 |2159 |  40k|2159 |   0 |   0 |   0 | 0.000000e+00 |      --      |    Inf 
 21.1s|     1 |     0 |  2108 | 119M|   0 | 167 |  40k|2159 |2159 |  40k|2163 |   4 |   0 |   0 | 0.000000e+00 |      --      |    Inf 
 22.7s|     1 |     0 |  2237 | 119M|   0 | 296 |  40k|2159 |2159 |  40k|2167 |   8 |   0 |   0 | 0.000000e+00 |      --      |    Inf 
 23.9s|     1 |     0 |  2286 | 119M|   0 | 314 |  40k|2159 |2159 |  40k|2168 |   9 |   0 |   0 | 0.000000e+00 |      --      |    Inf 
F 113s|     1 |     2 |  3426 | 120M|   0 |   0 |  40k|2159 |2159 |  40k|2168 |   9 |   0 |  25 | 0.000000e+00 | 0.000000e+00 |   0.00%

SCIP Status        : problem is solved [optimal solution found]
Solving Time (sec) : 113.43
Solving Nodes      : 1
Primal Bound       : +0.00000000000000e+00 (1 solutions)
Dual Bound         : +0.00000000000000e+00
Gap                : 0.00 %

primal solution:
================

objective value:                                    0
Taught#1#1#10                                       1 	(obj:0)
Taught#1#2#44                                       1 	(obj:0)
Taught#1#3#60                                       1 	(obj:0)
Taught#1#4#48                                       1 	(obj:0)
Taught#1#5#90                                       1 	(obj:0)
Taught#1#6#19                                       1 	(obj:0)
Taught#1#7#14                                       1 	(obj:0)
Taught#1#8#56                                       1 	(obj:0)
Taught#1#9#54                                       1 	(obj:0)
Taught#1#10#24                                      1 	(obj:0)
Taught#1#11#91                                      1 	(obj:0)
Taught#1#12#26                                      1 	(obj:0)
Taught#1#13#32                                      1 	(obj:0)
Taught#1#14#83                                      1 	(obj:0)
Taught#1#15#11                                      1 	(obj:0)
Taught#1#16#75                                      1 	(obj:0)
Taught#1#17#80                                      1 	(obj:0)
Taught#1#18#8                                       1 	(obj:0)
Taught#2#1#52                                       1 	(obj:0)
Taught#2#2#36                                       1 	(obj:0)
Taught#2#3#53                                       1 	(obj:0)
Taught#2#4#45                                       1 	(obj:0)
Taught#2#5#92                                       1 	(obj:0)
Taught#2#6#9                                        1 	(obj:0)
Taught#2#7#20                                       1 	(obj:0)
Taught#2#8#16                                       1 	(obj:0)
Taught#2#9#40                                       1 	(obj:0)
Taught#2#10#95                                      1 	(obj:0)
Taught#2#11#70                                      1 	(obj:0)
Taught#2#12#15                                      1 	(obj:0)
Taught#2#13#104                                     1 	(obj:0)
Taught#2#14#3                                       1 	(obj:0)
Taught#2#15#22                                      1 	(obj:0)
Taught#2#16#65                                      1 	(obj:0)
Taught#2#17#37                                      1 	(obj:0)
Taught#2#18#58                                      1 	(obj:0)
Taught#3#1#6                                        1 	(obj:0)
Taught#3#2#92                                       1 	(obj:0)
Taught#3#3#20                                       1 	(obj:0)
Taught#3#4#56                                       1 	(obj:0)
Taught#3#5#80                                       1 	(obj:0)
Taught#3#6#19                                       1 	(obj:0)
Taught#3#7#41                                       1 	(obj:0)
Taught#3#8#9                                        1 	(obj:0)
Taught#3#9#17                                       1 	(obj:0)
Taught#3#10#24                                      1 	(obj:0)
Taught#3#11#85                                      1 	(obj:0)
Taught#3#12#37                                      1 	(obj:0)
Taught#3#13#28                                      1 	(obj:0)
Taught#3#14#1                                       1 	(obj:0)
Taught#3#15#27                                      1 	(obj:0)
Taught#3#16#60                                      1 	(obj:0)
Taught#3#17#94                                      1 	(obj:0)
Taught#3#18#101                                     1 	(obj:0)
Taught#4#1#92                                       1 	(obj:0)
Taught#4#2#41                                       1 	(obj:0)
Taught#4#3#58                                       1 	(obj:0)
Taught#4#4#94                                       1 	(obj:0)
Taught#4#6#71                                       1 	(obj:0)
Taught#4#7#54                                       1 	(obj:0)
Taught#4#8#62                                       1 	(obj:0)
Taught#4#11#49                                      1 	(obj:0)
Taught#4#12#83                                      1 	(obj:0)
Taught#4#14#80                                      1 	(obj:0)
Taught#4#15#18                                      1 	(obj:0)
Taught#4#16#75                                      1 	(obj:0)
Taught#4#17#42                                      1 	(obj:0)
Taught#4#18#89                                      1 	(obj:0)
Taught#5#1#11                                       1 	(obj:0)
Taught#5#2#40                                       1 	(obj:0)
Taught#5#3#67                                       1 	(obj:0)
Taught#5#4#13                                       1 	(obj:0)
Taught#5#5#39                                       1 	(obj:0)
Taught#5#6#88                                       1 	(obj:0)
Taught#5#7#52                                       1 	(obj:0)
Taught#5#9#97                                       1 	(obj:0)
Taught#5#13#37                                      1 	(obj:0)
Taught#5#16#33                                      1 	(obj:0)
Taught#5#17#96                                      1 	(obj:0)
Taught#6#1#12                                       1 	(obj:0)
Taught#6#2#103                                      1 	(obj:0)
Taught#6#3#81                                       1 	(obj:0)
Taught#6#4#20                                       1 	(obj:0)
Taught#6#7#7                                        1 	(obj:0)
Taught#6#10#6                                       1 	(obj:0)
Taught#6#12#65                                      1 	(obj:0)
Taught#6#13#15                                      1 	(obj:0)
Taught#6#15#35                                      1 	(obj:0)
Taught#6#17#71                                      1 	(obj:0)
Taught#6#18#77                                      1 	(obj:0)
Taught#7#1#34                                       1 	(obj:0)
Taught#7#2#100                                      1 	(obj:0)
Taught#7#3#103                                      1 	(obj:0)
Taught#7#4#29                                       1 	(obj:0)
Taught#7#6#63                                       1 	(obj:0)
Taught#7#10#23                                      1 	(obj:0)
Taught#7#11#73                                      1 	(obj:0)
Taught#7#12#49                                      1 	(obj:0)
Taught#7#14#101                                     1 	(obj:0)
Taught#7#15#46                                      1 	(obj:0)
Taught#7#16#17                                      1 	(obj:0)
Taught#7#18#2                                       1 	(obj:0)
Taught#8#1#36                                       1 	(obj:0)
Taught#8#2#14                                       1 	(obj:0)
Taught#8#4#2                                        1 	(obj:0)
Taught#8#5#8                                        1 	(obj:0)
Taught#8#7#32                                       1 	(obj:0)
Taught#8#8#102                                      1 	(obj:0)
Taught#8#10#59                                      1 	(obj:0)
Taught#8#11#38                                      1 	(obj:0)
Taught#8#12#99                                      1 	(obj:0)
Taught#8#13#44                                      1 	(obj:0)
Taught#8#14#69                                      1 	(obj:0)
Taught#8#18#61                                      1 	(obj:0)
Taught#9#3#101                                      1 	(obj:0)
Taught#9#4#86                                       1 	(obj:0)
Taught#9#5#74                                       1 	(obj:0)
Taught#9#8#103                                      1 	(obj:0)
Taught#9#12#33                                      1 	(obj:0)
Taught#9#14#71                                      1 	(obj:0)
Taught#9#15#87                                      1 	(obj:0)
Taught#9#16#58                                      1 	(obj:0)
Taught#9#17#25                                      1 	(obj:0)
Taught#9#18#63                                      1 	(obj:0)
Taught#10#2#2                                       1 	(obj:0)
Taught#10#3#102                                     1 	(obj:0)
Taught#10#4#37                                      1 	(obj:0)
Taught#10#6#31                                      1 	(obj:0)
Taught#10#7#52                                      1 	(obj:0)
Taught#10#9#82                                      1 	(obj:0)
Taught#10#13#3                                      1 	(obj:0)
Taught#10#15#24                                     1 	(obj:0)
Taught#10#16#79                                     1 	(obj:0)
Taught#10#17#74                                     1 	(obj:0)
Taught#11#2#84                                      1 	(obj:0)
Taught#11#3#12                                      1 	(obj:0)
Taught#11#4#102                                     1 	(obj:0)
Taught#11#5#35                                      1 	(obj:0)
Taught#11#6#5                                       1 	(obj:0)
Taught#11#10#13                                     1 	(obj:0)
Taught#11#11#64                                     1 	(obj:0)
Taught#11#13#46                                     1 	(obj:0)
Taught#11#18#54                                     1 	(obj:0)
Taught#12#2#98                                      1 	(obj:0)
Taught#12#3#93                                      1 	(obj:0)
Taught#12#7#87                                      1 	(obj:0)
Taught#12#11#55                                     1 	(obj:0)
Taught#12#12#73                                     1 	(obj:0)
Taught#12#14#4                                      1 	(obj:0)
Taught#12#16#90                                     1 	(obj:0)
Taught#13#1#81                                      1 	(obj:0)
Taught#13#3#93                                      1 	(obj:0)
Taught#13#4#12                                      1 	(obj:0)
Taught#13#8#26                                      1 	(obj:0)
Taught#13#10#84                                     1 	(obj:0)
Taught#13#11#23                                     1 	(obj:0)
Taught#13#13#68                                     1 	(obj:0)
Taught#13#14#55                                     1 	(obj:0)
Taught#13#15#19                                     1 	(obj:0)
Taught#13#16#61                                     1 	(obj:0)
Taught#13#18#59                                     1 	(obj:0)
Taught#14#1#13                                      1 	(obj:0)
Taught#14#3#66                                      1 	(obj:0)
Taught#14#4#68                                      1 	(obj:0)
Taught#14#8#84                                      1 	(obj:0)
Taught#14#9#87                                      1 	(obj:0)
Taught#14#10#49                                     1 	(obj:0)
Taught#14#12#10                                     1 	(obj:0)
Taught#14#14#64                                     1 	(obj:0)
Taught#14#15#96                                     1 	(obj:0)
Taught#14#17#4                                      1 	(obj:0)
Taught#15#2#19                                      1 	(obj:0)
Taught#15#5#54                                      1 	(obj:0)
Taught#15#8#60                                      1 	(obj:0)
Taught#15#10#64                                     1 	(obj:0)
Taught#15#11#42                                     1 	(obj:0)
Taught#15#15#89                                     1 	(obj:0)
Taught#15#16#30                                     1 	(obj:0)
Taught#15#17#75                                     1 	(obj:0)
Taught#15#18#79                                     1 	(obj:0)
Taught#16#1#104                                     1 	(obj:0)
Taught#16#4#69                                      1 	(obj:0)
Taught#16#5#48                                      1 	(obj:0)
Taught#16#6#67                                      1 	(obj:0)
Taught#16#8#6                                       1 	(obj:0)
Taught#16#10#58                                     1 	(obj:0)
Taught#16#11#25                                     1 	(obj:0)
Taught#16#14#43                                     1 	(obj:0)
Taught#16#15#21                                     1 	(obj:0)
Taught#16#16#7                                      1 	(obj:0)
Taught#16#18#97                                     1 	(obj:0)
Taught#17#1#70                                      1 	(obj:0)
Taught#17#2#88                                      1 	(obj:0)
Taught#17#4#46                                      1 	(obj:0)
Taught#17#5#51                                      1 	(obj:0)
Taught#17#9#55                                      1 	(obj:0)
Taught#17#11#99                                     1 	(obj:0)
Taught#17#14#72                                     1 	(obj:0)
Taught#17#15#77                                     1 	(obj:0)
Taught#17#16#33                                     1 	(obj:0)
Taught#17#18#32                                     1 	(obj:0)
Taught#18#1#76                                      1 	(obj:0)
Taught#18#4#61                                      1 	(obj:0)
Taught#18#5#30                                      1 	(obj:0)
Taught#18#7#57                                      1 	(obj:0)
Taught#18#8#1                                       1 	(obj:0)
Taught#18#9#47                                      1 	(obj:0)
Taught#18#10#22                                     1 	(obj:0)
Taught#18#12#28                                     1 	(obj:0)
Taught#18#13#87                                     1 	(obj:0)
Taught#18#14#97                                     1 	(obj:0)
Taught#18#15#43                                     1 	(obj:0)
Taught#19#5#21                                      1 	(obj:0)
Taught#19#6#97                                      1 	(obj:0)
Taught#19#8#83                                      1 	(obj:0)
Taught#19#9#50                                      1 	(obj:0)
Taught#19#10#47                                     1 	(obj:0)
Taught#19#11#15                                     1 	(obj:0)
Taught#19#12#43                                     1 	(obj:0)
Taught#19#13#27                                     1 	(obj:0)
Taught#19#15#57                                     1 	(obj:0)
Taught#19#16#31                                     1 	(obj:0)
Taught#19#17#53                                     1 	(obj:0)
Taught#19#18#10                                     1 	(obj:0)
Taught#20#1#28                                      1 	(obj:0)
Taught#20#2#76                                      1 	(obj:0)
Taught#20#8#62                                      1 	(obj:0)
Taught#20#9#66                                      1 	(obj:0)
Taught#20#11#64                                     1 	(obj:0)
Taught#20#12#43                                     1 	(obj:0)
Taught#20#14#57                                     1 	(obj:0)
Taught#20#16#18                                     1 	(obj:0)
Taught#20#17#50                                     1 	(obj:0)
Taught#20#18#78                                     1 	(obj:0)
Taught#21#1#29                                      1 	(obj:0)
Taught#21#2#13                                      1 	(obj:0)
Taught#21#7#23                                      1 	(obj:0)
Taught#21#8#17                                      1 	(obj:0)
Taught#21#9#60                                      1 	(obj:0)
Taught#21#12#62                                     1 	(obj:0)
Taught#21#13#9                                      1 	(obj:0)
Taught#21#15#82                                     1 	(obj:0)
Taught#21#16#93                                     1 	(obj:0)
Taught#21#17#100                                    1 	(obj:0)
Taught#22#4#89                                      1 	(obj:0)
Taught#22#5#72                                      1 	(obj:0)
Taught#22#6#65                                      1 	(obj:0)
Taught#22#7#56                                      1 	(obj:0)
Taught#22#9#50                                      1 	(obj:0)
Taught#22#11#93                                     1 	(obj:0)
Taught#22#12#82                                     1 	(obj:0)
Taught#22#15#6                                      1 	(obj:0)
Taught#22#16#53                                     1 	(obj:0)
Taught#22#17#98                                     1 	(obj:0)
Taught#22#18#38                                     1 	(obj:0)
Taught#23#1#1                                       1 	(obj:0)
Taught#23#4#46                                      1 	(obj:0)
Taught#23#5#28                                      1 	(obj:0)
Taught#23#6#38                                      1 	(obj:0)
Taught#23#7#65                                      1 	(obj:0)
Taught#23#8#95                                      1 	(obj:0)
Taught#23#9#24                                      1 	(obj:0)
Taught#23#10#86                                     1 	(obj:0)
Taught#23#11#26                                     1 	(obj:0)
Taught#23#12#79                                     1 	(obj:0)
Taught#23#13#4                                      1 	(obj:0)
Taught#23#14#5                                      1 	(obj:0)
Taught#23#15#36                                     1 	(obj:0)
Taught#23#16#34                                     1 	(obj:0)
Taught#23#17#100                                    1 	(obj:0)
Taught#23#18#12                                     1 	(obj:0)
Taught#24#1#2                                       1 	(obj:0)
Taught#24#2#26                                      1 	(obj:0)
Taught#24#3#90                                      1 	(obj:0)
Taught#24#4#80                                      1 	(obj:0)
Taught#24#5#44                                      1 	(obj:0)
Taught#24#6#3                                       1 	(obj:0)
Taught#24#9#74                                      1 	(obj:0)
Taught#24#10#5                                      1 	(obj:0)
Taught#24#11#35                                     1 	(obj:0)
Taught#24#12#45                                     1 	(obj:0)
Taught#24#15#50                                     1 	(obj:0)
Taught#24#17#91                                     1 	(obj:0)
Taught#24#18#16                                     1 	(obj:0)
Taught#25#1#66                                      1 	(obj:0)
Taught#25#2#11                                      1 	(obj:0)
Taught#25#3#62                                      1 	(obj:0)
Taught#25#4#75                                      1 	(obj:0)
Taught#25#5#32                                      1 	(obj:0)
Taught#25#6#34                                      1 	(obj:0)
Taught#25#7#92                                      1 	(obj:0)
Taught#25#8#51                                      1 	(obj:0)
Taught#25#9#45                                      1 	(obj:0)
Taught#25#11#70                                     1 	(obj:0)
Taught#25#12#78                                     1 	(obj:0)
Taught#25#13#22                                     1 	(obj:0)
Taught#25#14#15                                     1 	(obj:0)
Taught#25#15#74                                     1 	(obj:0)
Taught#25#16#85                                     1 	(obj:0)
Taught#25#17#39                                     1 	(obj:0)

Statistics
==========

SCIP Status        : problem is solved [optimal solution found]
Solving Time       :     113.43
Original Problem   :
  Problem name     : random_9.ctt.c.zpl
  Variables        : 46800 (46800 binary, 0 integer, 0 implicit integer, 0 continuous)
  Constraints      : 5302 initial, 5302 maximal
Presolved Problem  :
  Problem name     : t_random_9.ctt.c.zpl
  Variables        : 40788 (40788 binary, 0 integer, 0 implicit integer, 0 continuous)
  Constraints      : 2159 initial, 2159 maximal
Presolvers         :       Time  FixedVars   AggrVars   ChgTypes  ChgBounds   AddHoles    DelCons   ChgSides   ChgCoefs
  trivial          :       0.03          0          0          0          0          0          0          0          0
  inttobinary      :       0.00          0          0          0          0          0          0          0          0
  dualfix          :       0.02          0          0          0          0          0          0          0          0
  implics          :       0.02          0          0          0          0          0          0          0          0
  probing          :       7.02          0          0          0          0          0          0          0          0
  setppc           :       0.49          0          0          0          0          0          0          0          0
  linear           :       5.31       6012          0          0       6012          0       3143       2674          0
  root node        :          -          0          -          -          0          -          -          -          -
Constraints        :     Number  #Separate #Propagate    #EnfoLP    #EnfoPS    Cutoffs    DomReds       Cuts      Conss   Children
  integral         :          0          0          0          1          0          0          0          0          0          2
  setppc           :       1998          4        201          0          0          0          0          0          0          0
  linear           :        161          4        201          0          0          0          0          0          0          0
Constraint Timings :  TotalTime   Separate  Propagate     EnfoLP     EnfoPS
  integral         :      80.01       0.00       0.00      80.01       0.00
  setppc           :       0.08       0.00       0.08       0.00       0.00
  linear           :       4.85       0.00       4.85       0.00       0.00
Propagators        :       Time      Calls    Cutoffs    DomReds
  rootredcost      :       0.00          0          0          0
  pseudoobj        :       0.00          1          0          0
Conflict Analysis  :       Time      Calls    Success  Conflicts   Literals    Reconvs ReconvLits   LP Iters
  propagation      :       0.00          0          0          0        0.0          0        0.0          -
  infeasible LP    :       0.00          0          0          0        0.0          0        0.0          0
  bound exceed. LP :       0.00          0          0          0        0.0          0        0.0          0
  strong branching :       0.00          0          0          0        0.0          0        0.0          0
  pseudo solution  :       0.00          0          0          0        0.0          0        0.0          -
  applied globally :          -          -          -          0        0.0          -          -          -
  applied locally  :          -          -          -          0        0.0          -          -          -
Separators         :       Time      Calls    Cutoffs    DomReds       Cuts      Conss
  cut pool         :       0.00          3          -          -          0          -    (maximal pool size: 9)
  redcost          :       0.01          4          0          0          0          0
  impliedbounds    :       0.04          4          0          0          0          0
  intobj           :       0.00          0          0          0          0          0
  gomory           :       0.07          4          0          0          0          0
  strongcg         :       0.08          4          0          0          0          0
  cmir             :       3.20          4          0          0          0          0
  clique           :       0.14          4          0          0          9          0
Pricers            :       Time      Calls       Vars
  problem variables:       0.00          0          0
Branching Rules    :       Time      Calls    Cutoffs    DomReds       Cuts      Conss   Children
  relpscost        :      80.01          1          0          0          0          0          2
  pscost           :       0.00          0          0          0          0          0          0
  inference        :       0.00          0          0          0          0          0          0
  mostinf          :       0.00          0          0          0          0          0          0
  leastinf         :       0.00          0          0          0          0          0          0
  fullstrong       :       0.00          0          0          0          0          0          0
  allfullstrong    :       0.00          0          0          0          0          0          0
Primal Heuristics  :       Time      Calls      Found
  LP solutions     :       0.00          -          0
  pseudo solutions :       0.00          -          0
  octane           :       0.00          0          0
  simplerounding   :       0.01          4          0
  rounding         :       0.09          4          0
  shifting         :       0.45          4          0
  fixandinfer      :       0.00          0          0
  feaspump         :       8.63          1          1
  coefdiving       :       0.00          0          0
  pscostdiving     :       0.00          0          0
  fracdiving       :       0.00          0          0
  intdiving        :       0.00          0          0
  objpscostdiving  :       0.00          0          0
  rootsoldiving    :       0.00          0          0
  linesearchdiving :       0.00          0          0
  guideddiving     :       0.00          0          0
  rins             :       0.00          0          0
  localbranching   :       0.00          0          0
  crossover        :       0.00          0          0
LP                 :       Time      Calls Iterations  Iter/call   Iter/sec
  primal LP        :       0.00          0          0       0.00          -
  dual LP          :       6.53          4       2286     571.50     350.08
  barrier LP       :       0.00          0          0       0.00          -
  diving/probing LP:       8.52          1       1140    1140.00     133.80
  strong branching :      80.01         25      18763     750.52     234.51
    (at root node) :          -         25      18763     750.52          -
  conflict analysis:       0.00          0          0       0.00          -
B&B Tree           :
  number of runs   :          1
  nodes            :          1
  nodes (total)    :          1
  nodes left       :          0
  max depth        :          0
  max depth (total):          0
  backtracks       :          0 (0.0%)
  delayed cutoffs  :          0
  repropagations   :          0 (0 domain reductions, 0 cutoffs)
  avg switch length:       2.00
  switching time   :       0.00
Solution           :
  Solutions found  :          1 (1 improvements)
  Primal Bound     : +0.00000000000000e+00   (in run 1, after 1 nodes, 113.36 seconds, depth 0, found by <feaspump>)
  Dual Bound       : +0.00000000000000e+00
  Gap              :       0.00 %
  Root Dual Bound  : +0.00000000000000e+00
cp: copying multiple files, but last argument `/home/psxjm3/' is not a directory
Try `cp --help' for more information.
